units metal
atom_style charge
box tilt large
read_data data.0
pair_style lj/cut 10
pair_coeff * * 1 1
compute sna all sna/atom 1 0.99363 6 3.7 1.0 diagonal 3 rmin0 0.0 bzeroflag 0
compute snad all snad/atom 1 0.99363 6 3.7 1.0 diagonal 3 rmin0 0.0 quadraticflag 0
compute snav all snav/atom 1 0.99363 6 3.7 1.0 diagonal 3 rmin0 0.0 quadraticflag 0
dump 1 all custom 1 dump.element element
dump 2 all custom 1 dump.sna c_sna[*]
dump 3 all custom 1 dump.snad c_snad[*]
dump 4 all custom 1 dump.snav c_snav[*]
dump_modify 1 element Cu 
run 0
