Na4
1.0
5.253464 0.000000 0.000000
0.000000 5.253464 0.000000
0.000000 0.000000 5.253464
Na
4
direct
0.000000 0.000000 0.000000 Na
0.000000 0.500000 0.500000 Na
0.500000 0.000000 0.500000 Na
0.500000 0.500000 0.000000 Na
