As2
1.0
3.352752 0.000000 1.935712
1.117584 3.161005 1.935712
0.000000 0.000000 3.871425
As
2
direct
0.250000 0.250000 0.250000 As
0.750000 0.750000 0.750000 As
