Be2
1.0
2.259780 0.000000 0.000000
-1.129890 1.957027 0.000000
0.000000 0.000000 3.569878
Be
2
direct
0.666667 0.333333 0.750000 Be
0.333333 0.666667 0.250000 Be
