# Run NPT MD simulation for Si at 1000 K.
variable nsteps index 1000

# NOTE: These are not intended to represent real materials

units           metal

atom_style      atomic
atom_modify     map array
boundary        p p p
atom_modify     sort 0 0.0

#read_data Si.data
lattice  	diamond 5.6
region		box block 0 5 0 5 0 5
create_box	1 box
create_atoms	1 box
mass		1 1.0

# temperature
variable t equal 1000.


# Potential
pair_style hybrid/overlay &
mliap model nn Si-snap/NN_weights.txt &
descriptor sna Si-snap/DescriptorParam.txt &
zbl 2.0 4.0
pair_coeff 1 1 zbl 14.0 14.0
pair_coeff * * mliap Si


# Set-up output

compute  eatom all pe/atom
compute  energy all reduce sum c_eatom

compute  satom all stress/atom NULL
compute  str all reduce sum c_satom[1] c_satom[2] c_satom[3]
variable press equal (c_str[1]+c_str[2]+c_str[3])/(3*vol)

thermo_style    custom step temp epair c_energy etotal press v_press lx ly lz
thermo          100
thermo_modify norm yes

timestep 1e-3
neighbor 1.0 bin
neigh_modify once no every 1 delay 0 check yes

# Run MD

velocity all create $t 5287287 #loop geom
fix 1 all npt temp ${t} ${t} 0.1 iso 0.0 0.0 1.0
run ${nsteps}
