clear
box  tilt large
units metal
boundary p p p 
atom_modify sort 0 0.0
read_data data.lammps

### interactions
mass * 1.0
pair_style mliap model nn ../SiO2-snap/NN_weights.txt descriptor sna ../SiO2-snap/DescriptorParam.txt
pair_coeff * * O Si

#compute mliap model linear descriptor sna ../SiO2-snap/DescriptorParam.txt
compute sna all sna/atom 4.9 0.99363 6 0.5 0.5 8. 14. rmin0 0.0 switchflag 1 bzeroflag 0
dump 2 all custom 1 dump.sna c_sna[*]
run 0
