clear
units metal
boundary p p p
atom_style atomic
read_data data.lammps

### interactions
pair_style mliap model nn NN_weights.txt descriptor sna DescriptorParam.txt
pair_coeff * * O Si

variable        e equal pe
variable N equal count(all)

thermo_style custom pe pxx pyy pzz pxy pxz pyz
thermo 1

dump 1 all custom 1 dump.myforce.* id type fx fy fz

run             0
variable        emin equal $e
variable EperAtom equal (${emin}/${N})

print "Total energy (eV/atom) = ${EperAtom} "