# ---------- Initialize Simulation ---------------------
clear
units metal
dimension 3
boundary p p p
atom_style atomic
read_data Si.data

mass 1 28.0855

pair_style zbl 1.5 2.0
pair_coeff 1 1 14.0 14.0
variable e equal pe
variable N equal count(all)
thermo_style custom pe pxx pyy pzz pxy pxz pyz
thermo 1
dump 1 all custom 1 dump.myforce.* id type fx fy fz
run 0
